1000001011010110100111001011110001101011000001011101010100110010101001011110110000110001010010101100000110010000001000010011111010101110110010101000010000110000101110100010101011000000101001000010001101111001011110110010101110001000010110010110101000101101